85 75 8 88 74 39 81 21 11 0 77 16 41 46 45 15 68 98 7 84 20 10 53 57 3 61 64 27 14 49 36 62 32 38 26 52 30 2 37 19 5 28 67 43 44 31 47 12 34 65 50 89 18 22 54 55 23 6 58 59 51 33 35 1 40 29 66 92 13 69 70 71 72 73 17 42 99 9 78 79 80 24 76 83 4 82 90 87 60 63 86 91 48 93 94 95 96 97 56 25
85 75 8 88 74 39 81 21 11 0 77 16 41 46 45 15 68 98 7 84 20 10 53 57 3 61 64 27 14 49 36 62 32 38 26 52 30 2 37 19 5 28 67 43 44 31 47 12 34 65 50 89 18 22 54 55 23 6 58 59 51 33 35 1 40 29 66 92 13 69 70 71 72 73 17 42 99 9 78 79 80 24 76 83 4 82 90 87 60 63 86 91 48 93 94 95 96 97 56 25
85 75 8 88 74 39 81 21 11 0 77 16 41 46 45 15 68 98 7 84 20 10 53 57 3 61 64 27 14 49 36 62 32 38 26 52 30 2 37 19 5 28 67 43 44 31 47 12 34 65 50 89 18 22 54 55 23 6 58 59 51 33 35 1 40 29 66 92 13 69 70 71 72 73 17 42 99 9 78 79 80 24 76 83 4 82 90 87 60 63 86 91 48 93 94 95 96 97 56 25
85 75 8 88 74 39 81 21 11 0 77 16 41 46 45 15 68 98 7 84 20 10 53 57 3 61 64 27 14 49 36 62 32 38 26 52 30 2 37 19 5 28 67 43 44 31 47 12 34 65 50 89 18 22 54 55 23 6 58 59 51 33 35 1 40 29 66 92 13 69 70 71 72 73 17 42 99 9 78 79 80 24 76 83 4 82 90 87 60 63 86 91 48 93 94 95 96 97 56 25
85 75 8 88 74 39 81 21 11 0 77 16 41 46 45 15 68 98 7 84 20 10 53 57 3 61 64 27 14 49 36 62 32 38 26 52 30 2 37 19 5 28 67 43 44 31 47 12 34 65 50 89 18 22 54 55 23 6 58 59 51 33 35 1 40 29 66 92 13 69 70 71 72 73 17 42 99 9 78 79 80 24 76 83 4 82 90 87 60 63 86 91 48 93 94 95 96 97 56 25
